% File represents an instance of a Composite Structure problem to be solved by a CP framework
% Created on 2025-03-26 10:41:15.265
T = 58;
n = 9;
m = 12;
edges = [(1, 2),
(5, 4),
(7, 8),
(3, 2),
(5, 6),
(8, 9),
(1, 4),
(7, 4),
(5, 2),
(5, 8),
(3, 6),
(6, 9)];
counts = [|16, 20, 16, 6,
|16, 14, 16, 6,
|16, 14, 16, 8,
|16, 20, 16, 4,
|16, 20, 16, 6,
|16, 14, 16, 6,
|16, 20, 16, 6,
|16, 16, 16, 4,
|14, 14, 14, 4|];
